p cnf 20 11
e 1 2 3 0
a 4 0
e 5 0
a 6 0
e 7 0
a 8 9 10 11 0
e 12 13 14 0
a 15 16 17 18 0
e 19 20 0
-16 -8 -19 2 -10 0
-4 -13 -14 -8 0
8 18 15 -16 14 0
13 -12 8 19 0
13 -16 19 0
-13 -4 -17 -20 0
16 10 1 -7 0
18 20 -7 14 1 0
13 2 -16 -8 1 0
-8 -4 -3 -14 0
-12 18 14 -11 0
